========================================================== 
File name: C:\DEGR\assets\definitions\MSRCPSP_Gen\200_40_512_10_A.def
Creation date: Wed May 03 10:49:58 CEST 2023
Website: http://imopse.ii.pwr.edu.pl/ 
Reference: 
Myszkowski P. B., Skowronski M. E., Olech L., Oslizlo K., 
Hybrid Ant Colony Optimization in solving Multi-Skill Resource-Constrained Project Scheduling Problem, 
Soft Computing, DOI: DOI 10.1007/s00500-014-1455-x 
========================================================== 
General characteristics: 
Tasks: 200
Resources: 40
Precedence relations: 502
Number of skill types: 10
========================================================== 
ResourceID 	 Salary 	 Skills 
1	 	 	30.6	 	 Q5: 3 	  Q7: 1 	 
2	 	 	30.3	 	 Q7: 3 	  Q4: 2 	  Q8: 2 	  Q5: 2 	  Q0: 2 	  Q1: 1 	 
3	 	 	27.7	 	 Q4: 0 	  Q9: 0 	  Q1: 0 	  Q0: 3 	  Q3: 2 	  Q5: 3 	  Q8: 2 	  Q6: 2 	 
4	 	 	90.6	 	 Q0: 3 	  Q8: 3 	  Q5: 3 	  Q3: 2 	  Q4: 2 	  Q9: 1 	  Q2: 0 	  Q7: 2 	  Q1: 3 	 
5	 	 	34.0	 	 Q4: 0 	  Q3: 3 	 
6	 	 	12.8	 	 Q9: 0 	  Q8: 2 	  Q4: 3 	  Q1: 3 	 
7	 	 	78.5	 	 Q8: 2 	  Q1: 0 	  Q2: 2 	  Q7: 2 	  Q4: 3 	  Q6: 2 	  Q5: 1 	  Q3: 1 	  Q9: 3 	 
8	 	 	15.7	 	 Q8: 1 	  Q1: 1 	  Q7: 3 	  Q9: 2 	  Q0: 3 	  Q6: 3 	  Q5: 0 	  Q4: 3 	 
9	 	 	65.0	 	 Q8: 1 	 
10	 	 	23.1	 	 Q3: 3 	  Q1: 3 	  Q4: 2 	  Q2: 3 	 
11	 	 	55.6	 	 Q3: 2 	  Q5: 3 	  Q4: 0 	  Q6: 1 	  Q7: 2 	  Q8: 2 	  Q9: 2 	  Q1: 1 	  Q0: 2 	 
12	 	 	17.2	 	 Q0: 1 	  Q8: 3 	  Q3: 3 	  Q4: 3 	  Q2: 0 	  Q1: 1 	 
13	 	 	59.2	 	 Q7: 1 	  Q9: 2 	 
14	 	 	12.2	 	 Q7: 0 	  Q6: 0 	 
15	 	 	13.5	 	 Q4: 3 	  Q6: 2 	  Q2: 1 	  Q5: 0 	  Q3: 0 	  Q1: 2 	  Q8: 1 	  Q0: 1 	  Q7: 0 	 
16	 	 	81.1	 	 Q0: 3 	  Q7: 1 	  Q5: 0 	  Q9: 1 	  Q3: 0 	  Q2: 1 	  Q8: 2 	 
17	 	 	84.6	 	 Q9: 0 	  Q7: 3 	  Q4: 0 	  Q6: 1 	  Q3: 0 	 
18	 	 	88.2	 	 Q4: 3 	  Q5: 1 	  Q2: 2 	  Q7: 1 	  Q0: 0 	  Q9: 3 	  Q8: 3 	 
19	 	 	26.4	 	 Q1: 1 	  Q7: 1 	 
20	 	 	97.7	 	 Q5: 1 	  Q4: 0 	  Q0: 2 	  Q7: 2 	  Q1: 2 	  Q9: 1 	 
21	 	 	46.2	 	 Q6: 1 	  Q1: 3 	  Q9: 0 	  Q4: 1 	  Q2: 3 	  Q0: 3 	  Q5: 1 	  Q8: 2 	  Q3: 2 	 
22	 	 	71.2	 	 Q4: 1 	  Q9: 0 	  Q1: 3 	  Q2: 3 	 
23	 	 	91.8	 	 Q8: 3 	  Q9: 1 	  Q1: 3 	  Q7: 0 	  Q4: 2 	  Q6: 0 	  Q0: 1 	  Q5: 3 	 
24	 	 	21.4	 	 Q0: 0 	  Q8: 3 	  Q5: 2 	  Q6: 2 	  Q4: 2 	  Q3: 1 	 
25	 	 	97.1	 	 Q2: 2 	  Q9: 0 	  Q8: 0 	  Q7: 3 	  Q4: 0 	  Q5: 1 	 
26	 	 	96.7	 	 Q5: 1 	  Q3: 1 	  Q8: 0 	  Q9: 0 	  Q0: 0 	  Q1: 1 	  Q2: 2 	  Q7: 2 	  Q6: 1 	 
27	 	 	85.4	 	 Q8: 0 	 
28	 	 	68.3	 	 Q7: 1 	  Q6: 3 	 
29	 	 	63.9	 	 Q1: 1 	 
30	 	 	65.9	 	 Q8: 1 	  Q2: 3 	  Q9: 2 	  Q1: 1 	  Q0: 2 	  Q4: 1 	 
31	 	 	99.4	 	 Q0: 3 	  Q2: 0 	  Q9: 2 	  Q6: 2 	  Q3: 3 	  Q7: 2 	  Q4: 3 	  Q8: 2 	  Q1: 2 	 
32	 	 	42.0	 	 Q1: 3 	  Q4: 3 	  Q0: 0 	  Q9: 2 	  Q2: 0 	  Q8: 3 	 
33	 	 	52.7	 	 Q9: 1 	  Q5: 3 	  Q8: 2 	 
34	 	 	74.0	 	 Q8: 0 	  Q1: 3 	  Q2: 2 	  Q7: 3 	  Q3: 0 	  Q5: 0 	 
35	 	 	46.0	 	 Q9: 0 	  Q2: 0 	  Q8: 0 	  Q0: 2 	  Q5: 0 	  Q3: 2 	  Q7: 0 	  Q1: 2 	 
36	 	 	46.3	 	 Q5: 0 	  Q4: 3 	  Q1: 0 	  Q9: 1 	  Q0: 2 	  Q8: 2 	 
37	 	 	99.4	 	 Q4: 0 	  Q9: 1 	  Q2: 1 	  Q7: 3 	  Q5: 2 	 
38	 	 	25.4	 	 Q5: 3 	  Q2: 2 	  Q9: 3 	  Q1: 1 	  Q4: 1 	  Q6: 2 	  Q7: 2 	 
39	 	 	64.9	 	 Q5: 2 	  Q0: 0 	  Q3: 1 	  Q7: 2 	  Q4: 0 	  Q8: 1 	  Q2: 1 	  Q1: 2 	  Q6: 3 	 
40	 	 	49.7	 	 Q2: 3 	  Q1: 0 	  Q0: 0 	  Q3: 3 	  Q9: 1 	  Q4: 3 	  Q5: 0 	  Q6: 3 	  Q8: 3 	 
========================================================== 
TaskID 	 Duration 	 Skill 	 Predecessor IDs 
1	39	Q2:	1
2	11	Q3:	0
3	36	Q2:	3
4	22	Q6:	1
5	34	Q6:	3	2
6	29	Q9:	3
7	14	Q9:	1
8	12	Q6:	3
9	26	Q2:	2	5
10	33	Q6:	2
11	15	Q2:	0
12	16	Q9:	3
13	39	Q4:	3
14	31	Q8:	2
15	19	Q6:	2
16	18	Q2:	3
17	32	Q4:	3
18	11	Q0:	3	6
19	38	Q0:	1	17
20	19	Q4:	1
21	17	Q1:	1	15
22	31	Q2:	3
23	31	Q6:	3
24	31	Q0:	2
25	20	Q3:	0
26	35	Q1:	0	18
27	28	Q2:	3
28	34	Q3:	0	26	17	2
29	14	Q0:	2	27
30	38	Q5:	1
31	23	Q0:	3	19
32	31	Q5:	2
33	26	Q4:	1	20
34	17	Q2:	3	5
35	27	Q9:	2
36	31	Q3:	0
37	23	Q6:	3	30	7	28
38	23	Q1:	2	19	23
39	27	Q3:	3	36
40	9	Q4:	0	23	11	26	31
41	37	Q9:	2
42	11	Q8:	1
43	13	Q9:	1
44	39	Q6:	0
45	19	Q4:	3	43
46	34	Q9:	3	27
47	30	Q1:	3
48	29	Q8:	0	15	13
49	30	Q2:	1
50	26	Q7:	1	21
51	26	Q8:	1
52	9	Q2:	1
53	10	Q1:	0	7	26
54	23	Q8:	2	3	32	20	42
55	19	Q7:	2	27
56	21	Q2:	2
57	10	Q1:	2	47
58	10	Q6:	1	49	27	45
59	35	Q6:	1	33	57	8	9
60	32	Q5:	3	20
61	32	Q5:	1
62	13	Q8:	3	43	38
63	27	Q7:	3	24	42
64	15	Q0:	3	16	36
65	14	Q1:	0
66	11	Q4:	2	8
67	24	Q6:	1
68	13	Q2:	1	45	34
69	40	Q2:	2	38	54
70	22	Q7:	0	4	61
71	37	Q8:	1	64
72	32	Q9:	0
73	34	Q5:	2	20
74	16	Q4:	2	63
75	18	Q4:	3	30	48
76	20	Q0:	1	3	39
77	25	Q1:	3	16	12
78	38	Q5:	2	63	54
79	11	Q9:	2	73	54	25
80	31	Q9:	1	5	39
81	17	Q7:	0	17	74	77
82	33	Q5:	1	65	68
83	39	Q6:	0	78	53
84	26	Q6:	0	24	17
85	21	Q4:	2	78	16	82
86	21	Q4:	3
87	14	Q7:	1	43
88	12	Q8:	1	60	83	68	84	38
89	30	Q5:	0	34	65	40
90	34	Q4:	1	52	83	28
91	20	Q2:	3	29	70	62
92	33	Q0:	1	45	4	53	28	26
93	36	Q1:	3	24	31
94	10	Q9:	2	15
95	24	Q4:	1	56	37
96	40	Q2:	2	43	11
97	14	Q5:	0	74	67	28
98	21	Q6:	2	51	32	82
99	34	Q7:	1	87	33	38	47
100	16	Q7:	3	60	9	2	24
101	9	Q5:	2	62	49	44	35	2	77
102	22	Q0:	0	62	26
103	13	Q7:	1	40	31	25
104	31	Q1:	0	5	84	42	99
105	26	Q1:	2
106	36	Q0:	0	36	33	72
107	9	Q8:	3	60	24	102
108	18	Q7:	1	3
109	28	Q7:	0	34
110	16	Q8:	0	59
111	24	Q1:	3	37	84
112	12	Q9:	3	55	70	66	75	28
113	14	Q1:	1	13	25	80
114	35	Q0:	0	103
115	15	Q9:	2	88	114	45
116	36	Q9:	1	13
117	33	Q0:	2	61	83
118	14	Q8:	0	100	16	44	8	47	108	29
119	13	Q3:	2	116	62	11	82	79	95	108
120	13	Q3:	1	103
121	16	Q4:	2	23	74	25	1	11
122	26	Q6:	1	86
123	23	Q4:	3	96	1
124	25	Q6:	2	51	43	17
125	17	Q9:	0	99	64	109	80	115	92
126	28	Q3:	1	110	7	11	88
127	28	Q7:	1	83	79	73	41
128	34	Q9:	0	116	1	75	120
129	16	Q7:	0	83
130	38	Q2:	2	49	108	114
131	11	Q6:	2	130	56
132	22	Q2:	3	2
133	14	Q9:	3	19	67	49	32
134	34	Q9:	3	92	115	128	21	12
135	31	Q2:	1	11	18	84
136	40	Q2:	3	26	68	41	16	124
137	20	Q5:	1	126	21	120
138	20	Q3:	0	43	32	134	135
139	30	Q4:	0	20	78
140	24	Q0:	1	47	100	40	7	35	83	14	19	107
141	22	Q9:	1	130
142	24	Q1:	3	52	66	44	113
143	22	Q9:	2	139	119	117	106	63
144	25	Q5:	0	79	53	14	27
145	26	Q1:	0	4
146	36	Q4:	0	104	139	3	145
147	11	Q4:	3	79	84	86	102
148	27	Q9:	2	97	80	34	24	136
149	29	Q3:	3	58	63	96	82	37	28	105	135
150	37	Q5:	3	133	130	86	87	98	59
151	29	Q1:	3	138	45	142	14	15	136	46
152	36	Q1:	0	26	87
153	12	Q3:	1	43	9	8
154	12	Q6:	0	38	85	132	25	42
155	35	Q6:	0	68	124	152	154	14	141	18
156	40	Q6:	0	109	87	132
157	33	Q0:	0	35	100	65
158	31	Q7:	1	10	65	56	130	36	1
159	14	Q3:	0	52	58
160	34	Q5:	1	16	124	142
161	33	Q3:	0	1
162	10	Q1:	2	127	139	87	64
163	10	Q2:	0	127	5	42	45	66	41
164	14	Q5:	0
165	12	Q9:	0	8	147	156	28	54	135	159
166	34	Q9:	0	91	72	60
167	27	Q2:	1	22	81	128	21
168	28	Q6:	3	13	132	136	43
169	20	Q4:	2
170	23	Q1:	2	42	164	70	96	133	120
171	22	Q4:	1	22	148	45	36	99	129
172	17	Q9:	3	60	3	9	110
173	22	Q9:	2	165	64	110	122
174	14	Q6:	2	63	3
175	19	Q1:	3	173	28
176	33	Q4:	1	7	13	105	174	58
177	16	Q0:	0	151	85	9	111	164	108	162	16	121
178	35	Q4:	0	27	96	173	50	11	46
179	36	Q1:	1	169	19	33
180	22	Q8:	3	61	73
181	30	Q7:	2	1	47	123	18	44
182	32	Q2:	1	96	144
183	36	Q2:	1	87	102	146	3	46
184	14	Q5:	2	144	147	38
185	20	Q9:	1	178	166	175	11	124	36	163	146
186	38	Q0:	1	146	143	115
187	18	Q5:	2	77	73	29
188	28	Q8:	3	73	165
189	28	Q8:	0	143	47	28	139	78	188	12	119	107
190	16	Q7:	1	178	99	38
191	25	Q6:	0	129	91	169
192	30	Q1:	3	115	98	45	169	57	77	190
193	38	Q8:	3	96	55	78
194	37	Q0:	2	105
195	16	Q2:	2	117	49	5	177	18	193	185
196	26	Q6:	2	76	21	97	11	191
197	35	Q9:	2	30	131
198	25	Q4:	1	146	74	19	48
199	34	Q4:	1	127	27	109	187	4
200	23	Q7:	0	190	104	169	127	135	30	177	188
========================================================== 